
 $gddi niogroup=1 nioprocs=1 $end
 $fmo nfrag=3 ICHARG(1)=0,0,0
 indat(1)=1,2,3,1,1,1,2,2,3,3,3 mult(1)=1,1,1
 respap=5.5 resppc=5.5 resdim=5.5 $end
 $basis gbasis=sto ngauss=3 $end
 $fmoxyz
 C   C   0.00000000   0.00000000   0.00000000
 C   C   1.53335000   0.00000000   0.00000000
 C   C   2.04519275   0.00000000   1.44539933
 H   H   -0.36502147   0.89268932   -0.51539442
 H   H   -0.36502147   0.00000000   1.03078884
 H   H   -0.36502147   -0.89268932   -0.51539442
 H   H   1.89837147   0.89268932   -0.51539442
 H   H   1.89837147   -0.89268932   -0.51539442
 H   H   2.65287158   -0.89268932   1.61744152
 H   H   1.19537509   0.00000000   2.13356810
 H   H   2.65287158   0.89268932   1.61744152
 $end
 $fmoprp
modorb=3
 $end
 $fmobnd
-1 2 sto-3g
-2 3 sto-3g
 $end
 $FMOHYB
sto-3g 5 5
1 0  -0.117784    0.542251    0.000000    0.000000    0.850774
0 1  -0.117787    0.542269    0.802107    0.000000   -0.283586
0 1  -0.117787    0.542269   -0.401054   -0.694646   -0.283586
0 1  -0.117787    0.542269   -0.401054    0.694646   -0.283586
0 1   1.003621   -0.015003    0.000000    0.000000    0.000000
 $END


$contrl method=vqe vqescr=./vqe/py_script.py desc=C3H8_2-2-5_4-4-10 $end
$vqeprp monhomo=2 monlumo=2 dimhomo=4 dimlumo=4 monent=5 diment=10 $end
    