
 $gddi niogroup=1 nioprocs=1 $end
 $fmo nfrag=5 ICHARG(1)=0,0,0,0,0
 indat(1)=1,2,3,4,5,1,1,1,2,2,3,3,4,4,5,5,5 mult(1)=1,1,1,1,1
 respap=7.5 resppc=7.5 resdim=7.5 $end
 $basis gbasis=sto ngauss=3 $end
 $fmoxyz
 C   C   0.00000000   0.00000000   0.00000000
 C   C   1.53335000   0.00000000   0.00000000
 C   C   2.04519275   0.00000000   1.44539933
 C   C   3.57854275   -0.00000000   1.44539933
 C   C   4.09038550   -0.00000000   2.89079866
 H   H   -0.36502147   0.89268932   -0.51539442
 H   H   -0.36502147   0.00000000   1.03078884
 H   H   -0.36502147   -0.89268932   -0.51539442
 H   H   0.92567116   -0.89268932   -0.17204219
 H   H   0.92567116   0.89268932   -0.17204219
 H   H   1.68017128   0.89268932   0.93000491
 H   H   1.68017128   -0.89268932   0.93000491
 H   H   3.94356422   0.89268932   1.96079375
 H   H   3.94356422   -0.89268932   1.96079375
 H   H   4.69806433   -0.89268932   3.06284085
 H   H   3.24056784   0.00000000   3.57896743
 H   H   4.69806433   0.89268932   3.06284085
 $end
 $fmoprp
modorb=3
 $end
 $fmobnd
-1 2 sto-3g
-2 3 sto-3g
-3 4 sto-3g
-4 5 sto-3g
 $end
 $FMOHYB
sto-3g 5 5
1 0  -0.117784    0.542251    0.000000    0.000000    0.850774
0 1  -0.117787    0.542269    0.802107    0.000000   -0.283586
0 1  -0.117787    0.542269   -0.401054   -0.694646   -0.283586
0 1  -0.117787    0.542269   -0.401054    0.694646   -0.283586
0 1   1.003621   -0.015003    0.000000    0.000000    0.000000
 $END


$contrl method=rhf $end
    