
 $gddi niogroup=1 nioprocs=1 $end
 $fmo nfrag=8 ICHARG(1)=0,0,0,0,0,0,0,0
 indat(1)=1,2,3,4,5,6,7,8,1,1,1,2,2,3,3,4,4,5,5,6,6,7,7,8,8,8 mult(1)=1,1,1,1,1,1,1,1
 respap=11.5 resppc=11.5 resdim=11.5 $end
 $basis gbasis=sto ngauss=3 $end
 $fmoxyz
 C   C   0.00000000   0.00000000   0.00000000
 C   C   1.53335000   0.00000000   0.00000000
 C   C   2.04519275   0.00000000   1.44539933
 C   C   3.57854275   -0.00000000   1.44539933
 C   C   4.09038550   -0.00000000   2.89079866
 C   C   5.62373550   -0.00000000   2.89079866
 C   C   6.13557824   -0.00000000   4.33619799
 C   C   7.66892824   -0.00000000   4.33619799
 H   H   -0.36502147   0.89268932   -0.51539442
 H   H   -0.36502147   0.00000000   1.03078884
 H   H   -0.36502147   -0.89268932   -0.51539442
 H   H   0.92567116   -0.89268932   -0.17204219
 H   H   0.92567116   0.89268932   -0.17204219
 H   H   1.68017128   0.89268932   0.93000491
 H   H   1.68017128   -0.89268932   0.93000491
 H   H   2.97086391   -0.89268932   1.27335714
 H   H   2.97086391   0.89268932   1.27335714
 H   H   3.72536402   0.89268932   2.37540424
 H   H   3.72536402   -0.89268932   2.37540424
 H   H   5.01605666   -0.89268932   2.71875647
 H   H   5.01605666   0.89268932   2.71875647
 H   H   6.74325708   -0.89268932   4.50824018
 H   H   6.74325708   0.89268932   4.50824018
 H   H   8.03394972   0.89268932   4.85159241
 H   H   8.03394972   -0.00000000   3.30540915
 H   H   8.03394972   -0.89268932   4.85159241
 $end
 $fmoprp
modorb=3 maxit=100
 $end
 $fmobnd
-1 2 sto-3g
-2 3 sto-3g
-3 4 sto-3g
-4 5 sto-3g
-5 6 sto-3g
-6 7 sto-3g
-7 8 sto-3g
 $end
 $FMOHYB
sto-3g 5 5
1 0  -0.117784    0.542251    0.000000    0.000000    0.850774
0 1  -0.117787    0.542269    0.802107    0.000000   -0.283586
0 1  -0.117787    0.542269   -0.401054   -0.694646   -0.283586
0 1  -0.117787    0.542269   -0.401054    0.694646   -0.283586
0 1   1.003621   -0.015003    0.000000    0.000000    0.000000
 $END


$contrl method=rhf $end
    