$gddi niogroup=1 nioprocs=1 $end
$fmo nfrag=3 ICHARG(1)= 0,0,0
indat(1)=1,1,1,1,1,2,2,2,2,3,3,3,3 mult(1)=1,1,1 $end
 $basis gbasis=sto ngauss=3 $end
 $fmoxyz
N   7.0   -1.601081445661 0.655785222844  0.438187544172
H   1.0   -1.907575641002 0.018226575434  1.153457756988
H   1.0   -1.999546613863 1.550706732166  0.658056358624
C   6.0   -0.149818131363 0.721614804423  0.383003216064
H   1.0   1.027930915859  -0.350348346366 1.637881809473
C   6.0   0.367172830472  0.503483385826  1.665632948139
H   1.0   0.912752123961  1.381357401048  1.978810929349
H   1.0   -0.449633712444 0.315088299542  2.346613390526
H   1.0   0.147807569623  1.682395119593  -0.041426947166
C   6.0   0.429221187753  -0.338024868168 -0.544087030797
O   8.0   -0.425235351831 -0.839153730289 -1.418005760907
O   8.0   1.565524304328  -0.661425169504 -0.503121409378
H   1.0   -1.281629707265 -0.456089361712 -1.246450978236
 $end
 $FMOHYB
sto-3g 5 5
1 0  -0.117784    0.542251    0.000000    0.000000    0.850774
0 1  -0.117787    0.542269    0.802107    0.000000   -0.283586
0 1  -0.117787    0.542269   -0.401054   -0.694646   -0.283586
0 1  -0.117787    0.542269   -0.401054    0.694646   -0.283586
0 1   1.003621   -0.015003    0.000000    0.000000    0.000000
 $END
 $fmobnd
-4 6 sto-3g
-10 4 sto-3g
 $end
 $fmoprp
modorb=3
 $end
$contrl method=vqe vqescr=../vqe/py_script.py $end

