$gddi niogroup=1 nioprocs=1 $end
$fmo nfrag=3 ICHARG(1)= 0,0,0
indat(1)=1,1,2,2,3,3 mult(1)=1,1,1 $end
 $basis gbasis=sto ngauss=3 $end
 $fmoxyz
 H    1.0  -1.9112524064   0.0000000000   0.0000000000
 H    1.0  -1.1875183697   0.0000000000   0.0000000000
 H    1.0   1.7631369571   0.0000000000   0.0000000000
 H    1.0   2.4868630429   0.0000000000   0.0000000000
 H    1.0   5.4375183697   0.0000000000   0.0000000000
 H    1.0   6.1612524064   0.0000000000   0.0000000000
 $end
 $fmoprp
modorb=3
 $end
 $fmobnd
 
 $end
 $FMOHYB
sto-3g 5 5
1 0  -0.117784    0.542251    0.000000    0.000000    0.850774
0 1  -0.117787    0.542269    0.802107    0.000000   -0.283586
0 1  -0.117787    0.542269   -0.401054   -0.694646   -0.283586
0 1  -0.117787    0.542269   -0.401054    0.694646   -0.283586
0 1   1.003621   -0.015003    0.000000    0.000000    0.000000
 $END
$contrl method=vqe vqescr=./vqe/py_script.py desc=H2_trimer_opt $end
$vqeprp monhomo=-1 monlumo=-1 dimhomo=-1 dimlumo=-1 monent=-1 diment=-1 $end
