$gddi niogroup=1 nioprocs=1 $end
$fmo nfrag=3 ICHARG(1)= 0,0,0
indat(1)=1,1,2,2,3,3 mult(1)=1,1,1 $end
 $basis GBASIS=N31 NGAUSS=6 NDFUNC=1 $end
 $fmoxyz
H      1.0      0.0000000000    0.0000000000    0.0000000000 
H      1.0      0.7500000000    0.0000000000    0.0000000000 
H      1.0      1.7500000000    0.0000000000    0.0000000000 
H      1.0      2.5000000000    0.0000000000    0.0000000000 
H      1.0      3.5000000000    0.0000000000    0.0000000000 
H      1.0      4.2500000000    0.0000000000    0.0000000000 
 $end
 $fmoprp
modorb=3
 $end
 $fmobnd
 
 $end
 $FMOHYB
6-31G 9 5
 1 0  -0.067724    0.300281    0.000000    0.000000    0.606750
       0.306535    0.000000    0.000000    0.309793
 0 1  -0.067730    0.300310    0.572037    0.000000   -0.202234
       0.306552    0.292061    0.000000   -0.103255
 0 1  -0.067730    0.300310   -0.286019   -0.495398   -0.202234
       0.306552   -0.146031   -0.252933   -0.103255
 0 1  -0.067730    0.300310   -0.286019    0.495398   -0.202234
       0.306552   -0.146031    0.252933   -0.103255
 0 1   1.011954   -0.016447    0.000000    0.000000    0.000000
      -0.059374    0.000000    0.000000   -0.000001
 $END
$contrl method=vqe vqescr=./vqe/py_script.py desc=H2_trimer_631G_light $end
$vqeprp monhomo=-1 monlumo=-1 dimhomo=-1 dimlumo=-1 monent=-1 diment=15 $end
