$gddi niogroup=1 nioprocs=1 $end
$fmo nfrag=3 icharg(1)=0,0,0 indat(1)=1,1,1,2,2,2,3,3,3
 mult(1)=1,1,1 respap=20.0 resppc=20.0 resdim=20.0 $end
 $basis gbasis=sto ngauss=3 $end
 $fmoxyz
O  O        .000000     .000000     .000000
H  H        .000000     .000000     .957200
H  H        .926627     .000000    -.239987
O  O       2.542027     .893763   -1.001593
H  H       1.991815    1.623962   -1.284979
H  H       2.958433     .581215   -1.804806
O  O        .162059    2.462918   -1.477183
H  H       -.189749    1.755643    -.936605
H  H       -.375542    2.449889   -2.269046
 $end
 $fmoprp
modorb=3
 $end
 $fmobnd
 
 $end
 $FMOHYB
sto-3g 5 5
1 0  -0.117784    0.542251    0.000000    0.000000    0.850774
0 1  -0.117787    0.542269    0.802107    0.000000   -0.283586
0 1  -0.117787    0.542269   -0.401054   -0.694646   -0.283586
0 1  -0.117787    0.542269   -0.401054    0.694646   -0.283586
0 1   1.003621   -0.015003    0.000000    0.000000    0.000000
 $END
$contrl method=rhf $end
