$gddi niogroup=1 nioprocs=1 $end
$fmo nfrag=3 ICHARG(1)= 0,0,0
indat(1)=1,1,1,1,2,2,2,3,3,3,3 mult(1)=1,1,1 $end
 $basis gbasis=sto ngauss=3 $end
 $fmoxyz
C      6.0     -0.0000000000   -0.0000000000    0.0000000000 
H      1.0     -0.7850000000    0.2440000000   -0.6530000000 
H      1.0      0.3220000000   -0.9810000000   -0.1900000000 
H      1.0     -0.3350000000    0.0730000000    0.9930000000 
C      6.0      1.1710000000    0.9750000000   -0.2200000000 
H      1.0      1.5670000000    1.2620000000    0.7100000000 
H      1.0      0.8280000000    1.8250000000   -0.7310000000 
C      6.0      2.2660000000    0.2830000000   -1.0520000000 
H      1.0      2.6940000000    0.9760000000   -1.7140000000 
H      1.0      1.8430000000   -0.5080000000   -1.5980000000 
H      1.0      3.0080000000   -0.0920000000   -0.4110000000 
 $end
 $FMOHYB
sto-3g 5 5
1 0  -0.117784    0.542251    0.000000    0.000000    0.850774
0 1  -0.117787    0.542269    0.802107    0.000000   -0.283586
0 1  -0.117787    0.542269   -0.401054   -0.694646   -0.283586
0 1  -0.117787    0.542269   -0.401054    0.694646   -0.283586
0 1   1.003621   -0.015003    0.000000    0.000000    0.000000
 $END
 $fmobnd
-1 5 sto-3g
-8 5 sto-3g
 $end
 $fmoprp
modorb=3
 $end
$contrl method=vqe vqescr=./vqe/py_script.py desc=propane_2_5_2_5_corr $end
$vqeprp monhomo=2 monlumo=2 dimhomo=2 dimlumo=2 monent=5 diment=5 $end
