 $gddi niogroup=1 nioprocs=1 $end
 $FMO
      NFRAG=3
      ICHARG(1)=   0,  0,  0
      FRGNAM(1)= HOH1, HOH2, HOH3
      INDAT(1)= 0
                1     -3      0
                4     -6      0
                7     -9      0
 $END
 $FMOHYB
 STO-3G       5   5
   1 0  -0.117784   0.542250   0.000000   0.000000   0.850773
   0 1  -0.117787   0.542268   0.802106   0.000000  -0.283585
   0 1  -0.117787   0.542268  -0.401053  -0.694646  -0.283585
   0 1  -0.117787   0.542268  -0.401053   0.694646  -0.283585
   0 1   1.003620  -0.015003   0.000000   0.000000   0.000000
 MINI         5   5
   1 0  -0.104883   0.308874   0.000000   0.000000   0.521806
   0 1  -0.104883   0.308874   0.491961   0.000000  -0.173934
   0 1  -0.104883   0.308876  -0.245980  -0.426050  -0.173933
   0 1  -0.104883   0.308876  -0.245980   0.426050  -0.173933
   0 1   0.988209   0.063992   0.000000   0.000000   0.000000
 $END
 $FMOBND
 $END
 $FMOXYZ
      1      O        -0.1677870000     1.6457610000     0.1087470000
      2      H         0.6134110000     1.1026200000     0.1137240000
      3      H        -0.0938210000     2.2097200000    -0.6436190000
      4      O         1.5175690000    -0.6674240000    -0.0806740000
      5      H         1.9896450000    -1.0987990000     0.6120470000
      6      H         0.6683970000    -1.0917980000    -0.1397440000
      7      O        -1.3503880000    -0.9648790000    -0.0922080000
      8      H        -1.9089910000    -1.2112980000     0.6262070000
      9      H        -1.2637870000    -0.0181070000    -0.0555360000
 $END
       
$CONTRL method=vqe vqescr=./vqe/py_script.py desc=water3_test_v1_vqe ansatz=UCCSD threshold=1e-3 version=1 $END
$VQEPRP monhomo=2 monlumo=2 dimhomo=4 dimlumo=4 $end
