
 $gddi niogroup=1 nioprocs=1 $end
 $fmo nfrag=6 ICHARG(1)=0,0,0,0,0,0
 indat(1)=1,1,2,2,3,3,4,4,5,5,6,6 mult(1)=1,1,1,1,1,1
 respap=22.5 resppc=22.5 resdim=22.5 $end
 $basis gbasis=sto ngauss=3 $end
 $fmoxyz
 H   H   0.00000000   0.00000000   0.00000000
 H   H   0.00000000   0.00000000   0.72373404
 H   H   0.00000000   0.00000000   3.97373404
 H   H   0.00000000   0.00000000   4.69746807
 H   H   0.00000000   0.00000000   7.94746807
 H   H   0.00000000   0.00000000   8.67120211
 H   H   0.00000000   0.00000000   11.92120211
 H   H   0.00000000   0.00000000   12.64493615
 H   H   0.00000000   0.00000000   15.89493615
 H   H   0.00000000   0.00000000   16.61867018
 H   H   0.00000000   0.00000000   19.86867018
 H   H   0.00000000   0.00000000   20.59240422
 $end
 $fmoprp
modorb=3
 $end
 $fmobnd
 
 $end
 $FMOHYB
sto-3g 5 5
1 0  -0.117784    0.542251    0.000000    0.000000    0.850774
0 1  -0.117787    0.542269    0.802107    0.000000   -0.283586
0 1  -0.117787    0.542269   -0.401054   -0.694646   -0.283586
0 1  -0.117787    0.542269   -0.401054    0.694646   -0.283586
0 1   1.003621   -0.015003    0.000000    0.000000    0.000000
 $END


$contrl method=rhf $end
    