
 $gddi niogroup=1 nioprocs=1 $end
 $fmo nfrag=6 ICHARG(1)=0,0,0,0,0,0
 indat(1)=1,1,2,2,3,3,4,4,5,5,6,6 mult(1)=1,1,1,1,1,1
 respap=10.5 resppc=10.5 resdim=10.5 $end
 $basis gbasis=sto ngauss=3 $end
 $fmoxyz
 H   H   0.00000000   0.00000000   0.00000000
 H   H   0.00000000   0.00000000   0.72373404
 H   H   0.00000000   0.00000000   1.72373404
 H   H   0.00000000   0.00000000   2.44746807
 H   H   0.00000000   0.00000000   3.44746807
 H   H   0.00000000   0.00000000   4.17120211
 H   H   0.00000000   0.00000000   5.17120211
 H   H   0.00000000   0.00000000   5.89493615
 H   H   0.00000000   0.00000000   6.89493615
 H   H   0.00000000   0.00000000   7.61867018
 H   H   0.00000000   0.00000000   8.61867018
 H   H   0.00000000   0.00000000   9.34240422
 $end
 $fmoprp
modorb=3
 $end
 $fmobnd
 
 $end
 $FMOHYB
sto-3g 5 5
1 0  -0.117784    0.542251    0.000000    0.000000    0.850774
0 1  -0.117787    0.542269    0.802107    0.000000   -0.283586
0 1  -0.117787    0.542269   -0.401054   -0.694646   -0.283586
0 1  -0.117787    0.542269   -0.401054    0.694646   -0.283586
0 1   1.003621   -0.015003    0.000000    0.000000    0.000000
 $END


$contrl method=rhf $end
    