
 $gddi niogroup=1 nioprocs=1 $end
 $fmo nfrag=6 ICHARG(1)=0,0,0,0,0,0
 indat(1)=1,1,2,2,3,3,4,4,5,5,6,6 mult(1)=1,1,1,1,1,1
 respap=9.5 resppc=9.5 resdim=9.5 $end
 $basis gbasis=sto ngauss=3 $end
 $fmoxyz
 H   H   0.00000000   0.00000000   0.00000000
 H   H   0.00000000   0.00000000   0.72373404
 H   H   0.00000000   0.00000000   1.44747404
 H   H   0.00000000   0.00000000   2.17120807
 H   H   0.00000000   0.00000000   2.89494807
 H   H   0.00000000   0.00000000   3.61868211
 H   H   0.00000000   0.00000000   4.34242211
 H   H   0.00000000   0.00000000   5.06615615
 H   H   0.00000000   0.00000000   5.78989615
 H   H   0.00000000   0.00000000   6.51363018
 H   H   0.00000000   0.00000000   7.23737018
 H   H   0.00000000   0.00000000   7.96110422
 $end
 $fmoprp
modorb=3
 $end
 $fmobnd
 
 $end
 $FMOHYB
sto-3g 5 5
1 0  -0.117784    0.542251    0.000000    0.000000    0.850774
0 1  -0.117787    0.542269    0.802107    0.000000   -0.283586
0 1  -0.117787    0.542269   -0.401054   -0.694646   -0.283586
0 1  -0.117787    0.542269   -0.401054    0.694646   -0.283586
0 1   1.003621   -0.015003    0.000000    0.000000    0.000000
 $END


$contrl method=rhf $end
    