
 $gddi niogroup=1 nioprocs=1 $end
 $fmo nfrag=6 ICHARG(1)=0,0,0,0,0,0
 indat(1)=1,1,2,2,3,3,4,4,5,5,6,6 mult(1)=1,1,1,1,1,1
 respap=24.5 resppc=24.5 resdim=24.5 $end
 $basis gbasis=sto ngauss=3 $end
 $fmoxyz
 H   H   0   0   0
 H   H   0   0   0.7237340367
 H   H   0   0   4.4737340367
 H   H   0   0   5.1974680734
 H   H   0   0   8.9474680734
 H   H   0   0   9.6712021101
 H   H   0   0   13.4212021101
 H   H   0   0   14.1449361468
 H   H   0   0   17.8949361468
 H   H   0   0   18.6186701835
 H   H   0   0   22.3686701835
 H   H   0   0   23.092404220200002
 $end
 $fmoprp
modorb=3
 $end
 $fmobnd
 
 $end
 $FMOHYB
sto-3g 5 5
1 0  -0.117784    0.542251    0.000000    0.000000    0.850774
0 1  -0.117787    0.542269    0.802107    0.000000   -0.283586
0 1  -0.117787    0.542269   -0.401054   -0.694646   -0.283586
0 1  -0.117787    0.542269   -0.401054    0.694646   -0.283586
0 1   1.003621   -0.015003    0.000000    0.000000    0.000000
 $END
$contrl method=vqe vqescr=./vqe/py_script.py desc=linear_H2_6__3_75 $end
$vqeprp monhomo=-1 monlumo=-1 dimhomo=-1 dimlumo=-1 monent=-1 diment=-1 $end
    