
 $gddi niogroup=1 nioprocs=1 $end
 $fmo nfrag=6 ICHARG(1)=0,0,0,0,0,0
 indat(1)=1,1,2,2,3,3,4,4,5,5,6,6 mult(1)=1,1,1,1,1,1
 respap=28.5 resppc=28.5 resdim=28.5 $end
 $basis gbasis=sto ngauss=3 $end
 $fmoxyz
 H   H   0   0   0
 H   H   0   0   0.7237340367
 H   H   0   0   5.2237340367
 H   H   0   0   5.9474680734
 H   H   0   0   10.4474680734
 H   H   0   0   11.1712021101
 H   H   0   0   15.6712021101
 H   H   0   0   16.3949361468
 H   H   0   0   20.8949361468
 H   H   0   0   21.6186701835
 H   H   0   0   26.1186701835
 H   H   0   0   26.842404220200002
 $end
 $fmoprp
modorb=3
 $end
 $fmobnd
 
 $end
 $FMOHYB
sto-3g 5 5
1 0  -0.117784    0.542251    0.000000    0.000000    0.850774
0 1  -0.117787    0.542269    0.802107    0.000000   -0.283586
0 1  -0.117787    0.542269   -0.401054   -0.694646   -0.283586
0 1  -0.117787    0.542269   -0.401054    0.694646   -0.283586
0 1   1.003621   -0.015003    0.000000    0.000000    0.000000
 $END
$contrl method=vqe vqescr=./vqe/py_script.py desc=linear_H2_6__4_5 $end
$vqeprp monhomo=-1 monlumo=-1 dimhomo=-1 dimlumo=-1 monent=-1 diment=-1 $end
    