$gddi niogroup=1 nioprocs=1 $end
$fmo nfrag=7 ICHARG(1)= 0,0,0,0,0,0,0
indat(1)=1,1,2,2,3,3,4,4,5,5,6,6,7,7 mult(1)=1,1,1,1,1,1,1
respap=40.0 resppc=40.0 resdim=40.0 $end
 $basis gbasis=sto ngauss=3 $end
 $fmoxyz
 H    1.0   0.0000000000   0.0000000000   0.0000000000
 H    1.0   0.7237340367   0.0000000000   0.0000000000
 H    1.0   3.6743893635   0.0000000000   0.0000000000
 H    1.0   4.3981154493   0.0000000000   0.0000000000
 H    1.0   7.3487707761   0.0000000000   0.0000000000
 H    1.0   8.0725048128   0.0000000000   0.0000000000
 H    1.0   11.0231601396   0.0000000000   0.0000000000
 H    1.0   11.7468862254   0.0000000000   0.0000000000
 H    1.0   14.6975415522   0.0000000000   0.0000000000
 H    1.0   15.4212755889   0.0000000000   0.0000000000
 H    1.0   18.3719309157   0.0000000000   0.0000000000
 H    1.0   19.0956570015   0.0000000000   0.0000000000
 H    1.0   22.0463123283   0.0000000000   0.0000000000
 H    1.0   22.7700463650   0.0000000000   0.0000000000
 $end
 $fmoprp
modorb=3
 $end
 $fmobnd
 
 $end
 $FMOHYB
sto-3g 5 5
1 0  -0.117784    0.542251    0.000000    0.000000    0.850774
0 1  -0.117787    0.542269    0.802107    0.000000   -0.283586
0 1  -0.117787    0.542269   -0.401054   -0.694646   -0.283586
0 1  -0.117787    0.542269   -0.401054    0.694646   -0.283586
0 1   1.003621   -0.015003    0.000000    0.000000    0.000000
 $END
$contrl method=vqe vqescr=./vqe/py_script.py desc=linear_H2_7 $end
$vqeprp monhomo=-1 monlumo=-1 dimhomo=-1 dimlumo=-1 monent=-1 diment=-1 $end
